
Gurobi 12.0.2 (win64) logging started Fri Jun  6 10:09:49 2025

Set parameter LogFile to value "C:\Ioana\_uni\honours\slp\algorithm\Main_files\results\others\prox_tubules_new\Task_004_Sample005_irr_gurobi.log"
Gurobi Optimizer version 12.0.2 build v12.0.2rc0 (win64 - Windows 11.0 (26100.2))

CPU model: Intel(R) Core(TM) Ultra 5 125H, instruction set [SSE2|AVX|AVX2]
Thread count: 14 physical cores, 18 logical processors, using up to 18 threads

Non-default parameters:
TimeLimit  2200

Optimize a model with 47658 rows, 34811 columns and 147858 nonzeros
Model fingerprint: 0x5f3d66a5
Variable types: 17417 continuous, 17394 integer (17394 binary)
Coefficient statistics:
  Matrix range     [1e-04, 8e+04]
  Objective range  [5e-05, 3e+00]
  Bounds range     [1e+00, 1e+03]
  RHS range        [1e+00, 1e+00]
Presolve removed 31251 rows and 21846 columns
Presolve time: 0.31s
Presolved: 16407 rows, 12965 columns, 54601 nonzeros
Variable types: 6419 continuous, 6546 integer (6546 binary)

Root relaxation: objective 8.828253e-03, 2934 iterations, 0.21 seconds (0.35 work units)

    Nodes    |    Current Node    |     Objective Bounds      |     Work
 Expl Unexpl |  Obj  Depth IntInf | Incumbent    BestBd   Gap | It/Node Time

     0     0    0.00883    0   16          -    0.00883      -     -    0s
H    0     0                       6.1799024    0.00883   100%     -    0s
     0     0    1.82364    0   37    6.17990    1.82364  70.5%     -    0s
     0     0    1.83084    0   36    6.17990    1.83084  70.4%     -    1s
     0     0    1.84413    0   30    6.17990    1.84413  70.2%     -    1s
     0     0    2.80831    0   31    6.17990    2.80831  54.6%     -    1s
     0     0    3.57644    0   24    6.17990    3.57644  42.1%     -    1s
     0     0    3.57644    0   24    6.17990    3.57644  42.1%     -    1s
     0     0    3.57644    0   25    6.17990    3.57644  42.1%     -    1s
     0     0    3.57653    0   26    6.17990    3.57653  42.1%     -    1s
     0     0    3.68759    0   47    6.17990    3.68759  40.3%     -    1s
     0     0    4.45754    0   36    6.17990    4.45754  27.9%     -    1s
     0     0    4.45800    0   35    6.17990    4.45800  27.9%     -    1s
     0     0    4.47475    0   67    6.17990    4.47475  27.6%     -    1s
     0     0    4.47475    0   64    6.17990    4.47475  27.6%     -    1s
     0     0    4.47757    0   61    6.17990    4.47757  27.5%     -    1s
     0     0    4.47772    0   54    6.17990    4.47772  27.5%     -    1s
     0     0    5.30458    0   19    6.17990    5.30458  14.2%     -    1s
     0     0    5.33317    0   20    6.17990    5.33317  13.7%     -    2s
     0     0    5.34150    0   20    6.17990    5.34150  13.6%     -    2s
     0     0    5.34152    0   23    6.17990    5.34152  13.6%     -    2s
     0     0    5.65783    0   22    6.17990    5.65783  8.45%     -    2s
     0     0    5.65783    0    6    6.17990    5.65783  8.45%     -    2s
     0     0     cutoff    0         6.17990    6.17990  0.00%     -    2s

Cutting planes:
  Learned: 1
  Gomory: 1
  Cover: 5
  MIR: 13
  Flow cover: 25
  Flow path: 4
  Network: 1
  Relax-and-lift: 4

Explored 1 nodes (6255 simplex iterations) in 2.20 seconds (2.38 work units)
Thread count was 18 (of 18 available processors)

Solution count 1: 6.1799 

Optimal solution found (tolerance 1.00e-04)
Best objective 6.179902430683e+00, best bound 6.179902430683e+00, gap 0.0000%
